c Nemesis formula in 6CNF in accordance with DIMACS CNF format:
c    Filename: MCNC/c2670/c2670.tdl
c    Formula number 8
c    4846 variables (range: 2 - 4847)
c    1643 clauses
c
c p cnf 4847 1643
p cnf 700 1643
35	0
700	0
35	0
-36	0
34	0
95	-96	0
-95	96	0
34	36	0
-34	-36	0
-693	34	0
-693	95	0
34	95	0
-34	-95	0
693	-36	0
-693	36	0
693	-96	0
-693	96	0
36	-96	0
-36	96	0
113	116	0
-117	-695	0
115	-695	0
117	-696	0
-115	-696	0
-696	694	0
-695	694	0
634	115	0
-634	-115	0
-635	116	0
636	117	0
-636	-117	0
638	634	0
-638	-634	0
-639	635	0
640	636	0
-640	-636	0
490	-638	0
-490	638	0
490	-641	0
-490	641	0
491	-639	0
491	-642	0
492	-640	0
-492	640	0
492	-643	0
-492	643	0
-428	-490	0
-493	-490	0
-494	-490	0
-497	-490	0
-495	491	0
-495	-497	0
-495	-493	0
-495	-428	0
-428	-492	0
-493	-492	0
-496	-492	0
-497	-492	0
-436	-691	0
499	-691	0
436	-692	0
-499	-692	0
-692	497	0
-691	497	0
50	-498	0
-50	498	0
50	-499	0
-50	499	0
50	-663	0
-50	663	0
50	-673	0
-50	673	0
272	-439	0
-272	439	0
272	-440	0
-272	440	0
272	-547	0
-272	547	0
273	272	0
266	272	0
269	272	0
274	272	0
277	274	0
110	274	0
278	274	0
90	-126	0
-90	126	0
90	-127	0
-90	127	0
90	-132	0
-90	132	0
90	-134	0
-90	134	0
90	-140	0
-90	140	0
90	-147	0
-90	147	0
90	-150	0
-90	150	0
90	-155	0
-90	155	0
90	-197	0
-90	197	0
90	-208	0
-90	208	0
90	-268	0
-90	268	0
90	-278	0
-90	278	0
90	-283	0
-90	283	0
90	-285	0
-90	285	0
90	-289	0
-90	289	0
90	-330	0
-90	330	0
90	-334	0
-90	334	0
90	-338	0
-90	338	0
90	-362	0
-90	362	0
90	-366	0
-90	366	0
90	-424	0
-90	424	0
123	-124	0
-123	124	0
123	-125	0
-123	125	0
123	-129	0
-123	129	0
123	-131	0
-123	131	0
123	-144	0
-123	144	0
123	-146	0
-123	146	0
123	-200	0
-123	200	0
123	-203	0
-123	203	0
123	-207	0
-123	207	0
123	-210	0
-123	210	0
123	-275	0
-123	275	0
123	-277	0
-123	277	0
123	-280	0
-123	280	0
123	-282	0
-123	282	0
123	-363	0
-123	363	0
123	-365	0
-123	365	0
123	-423	0
-123	423	0
123	-426	0
-123	426	0
367	123	0
-367	-123	0
44	-135	0
-44	135	0
44	-136	0
-44	136	0
44	-139	0
-44	139	0
44	-141	0
-44	141	0
44	-149	0
-44	149	0
44	-151	0
-44	151	0
44	-154	0
-44	154	0
44	-156	0
-44	156	0
44	-196	0
-44	196	0
44	-198	0
-44	198	0
44	-214	0
-44	214	0
44	-267	0
-44	267	0
44	-270	0
-44	270	0
44	-284	0
-44	284	0
44	-286	0
-44	286	0
44	-288	0
-44	288	0
44	-331	0
-44	331	0
44	-333	0
-44	333	0
44	-335	0
-44	335	0
44	-337	0
-44	337	0
44	-358	0
-44	358	0
44	-361	0
-44	361	0
44	-367	0
-44	367	0
270	269	0
28	269	0
271	269	0
128	-137	0
-128	137	0
128	-138	0
-128	138	0
128	-142	0
-128	142	0
128	-145	0
-128	145	0
128	-152	0
-128	152	0
128	-157	0
-128	157	0
128	-199	0
-128	199	0
128	-201	0
-128	201	0
128	-204	0
-128	204	0
128	-211	0
-128	211	0
128	-215	0
-128	215	0
128	-271	0
-128	271	0
128	-276	0
-128	276	0
128	-281	0
-128	281	0
128	-287	0
-128	287	0
128	-332	0
-128	332	0
128	-336	0
-128	336	0
128	-359	0
-128	359	0
128	-364	0
-128	364	0
128	-427	0
-128	427	0
338	128	0
-338	-128	0
267	266	0
79	266	0
268	266	0
275	273	0
109	273	0
276	273	0
77	-350	0
-77	350	0
77	-351	0
-77	351	0
77	-409	0
-77	409	0
77	-414	0
-77	414	0
77	-420	0
-77	420	0
77	-430	0
-77	430	0
77	-434	0
-77	434	0
77	-438	0
-77	438	0
77	-443	0
-77	443	0
341	-347	0
-341	347	0
341	-348	0
-341	348	0
341	-413	0
-341	413	0
341	-419	0
-341	419	0
341	-429	0
-341	429	0
341	-433	0
-341	433	0
341	-437	0
-341	437	0
341	-442	0
-341	442	0
409	341	0
-409	-341	0
475	494	0
-475	-494	0
-476	495	0
477	496	0
-477	-496	0
-478	-475	0
-479	-475	0
-480	476	0
-480	-478	0
-478	-477	0
-481	-477	0
618	479	0
-629	480	0
-616	480	0
-616	-625	0
-629	-622	0
-616	618	0
-626	618	0
-623	618	0
-629	618	0
618	481	0
-544	-618	0
-441	-685	0
656	-685	0
441	-686	0
-656	-686	0
-686	544	0
-685	544	0
23	-656	0
-23	656	0
23	-657	0
-23	657	0
23	-660	0
-23	660	0
23	-674	0
-23	674	0
415	-444	0
-415	444	0
415	-445	0
-415	445	0
415	-501	0
-415	501	0
415	-546	0
-415	546	0
425	415	0
153	415	0
422	415	0
423	422	0
62	422	0
424	422	0
426	425	0
39	425	0
427	425	0
418	-668	0
-418	668	0
418	-669	0
-418	669	0
343	-355	0
-343	355	0
343	-356	0
-343	356	0
343	-421	0
-343	421	0
343	-489	0
-343	489	0
279	343	0
360	343	0
357	343	0
358	357	0
105	357	0
359	357	0
361	360	0
11	360	0
362	360	0
665	664	0
-665	-664	0
68	-608	0
-68	608	0
68	-609	0
-68	609	0
68	-662	0
-68	662	0
68	-665	0
-68	665	0
68	-667	0
-68	667	0
68	-675	0
-68	675	0
668	666	0
-668	-666	0
631	615	0
-631	-615	0
-632	616	0
633	617	0
-633	-617	0
344	-628	0
-344	628	0
344	-631	0
-344	631	0
345	-629	0
345	-632	0
346	-630	0
-346	630	0
346	-633	0
-346	633	0
-354	351	0
-352	353	0
-349	34	0
-35	348	0
193	-257	0
-193	257	0
193	-258	0
-193	258	0
193	-328	0
-193	328	0
193	-353	0
-193	353	0
194	193	0
195	193	0
122	193	0
124	122	0
18	122	0
126	122	0
200	194	0
37	194	0
201	194	0
3	-259	0
-3	259	0
3	-260	0
-3	260	0
3	-589	0
-3	589	0
3	-614	0
-3	614	0
3	-625	0
-3	625	0
3	-671	0
-3	671	0
611	-621	0
-611	621	0
611	-622	0
-611	622	0
614	611	0
-614	-611	0
484	478	0
65	-487	0
-65	487	0
65	-488	0
-65	488	0
65	-567	0
-65	567	0
65	-570	0
-65	570	0
65	-672	0
-65	672	0
216	-261	0
-216	261	0
216	-262	0
-216	262	0
216	-329	0
-216	329	0
216	-435	0
-216	435	0
143	216	0
217	216	0
213	216	0
214	213	0
107	213	0
215	213	0
288	217	0
81	217	0
289	217	0
485	482	0
-485	-482	0
412	-485	0
-412	485	0
412	-486	0
-412	486	0
205	-416	0
-205	416	0
205	-417	0
-205	417	0
202	205	0
133	205	0
130	205	0
131	130	0
66	130	0
132	130	0
203	202	0
73	202	0
204	202	0
49	-658	0
-49	658	0
49	-659	0
-49	659	0
49	-661	0
-49	661	0
49	-676	0
-49	676	0
483	-602	0
-483	602	0
483	-603	0
-483	603	0
483	-606	0
-483	606	0
661	483	0
-661	-483	0
509	493	0
-510	-509	0
-512	-509	0
-513	-509	0
-514	-509	0
-386	-683	0
548	-683	0
386	-684	0
-548	-684	0
-684	514	0
-683	514	0
51	-464	0
-51	464	0
51	-465	0
-51	465	0
51	-521	0
-51	521	0
51	-548	0
-51	548	0
226	-410	0
-226	410	0
226	-411	0
-226	411	0
226	-474	0
-226	474	0
226	-520	0
-226	520	0
226	-566	0
-226	566	0
158	226	0
221	226	0
218	226	0
219	218	0
89	218	0
220	218	0
48	-163	0
-48	163	0
48	-164	0
-48	164	0
48	-168	0
-48	168	0
48	-174	0
-48	174	0
48	-182	0
-48	182	0
48	-185	0
-48	185	0
48	-190	0
-48	190	0
48	-220	0
-48	220	0
48	-229	0
-48	229	0
48	-232	0
-48	232	0
48	-241	0
-48	241	0
48	-246	0
-48	246	0
48	-251	0
-48	251	0
48	-254	0
-48	254	0
48	-290	0
-48	290	0
48	-293	0
-48	293	0
48	-307	0
-48	307	0
48	-373	0
-48	373	0
48	-375	0
-48	375	0
48	-379	0
-48	379	0
48	-383	0
-48	383	0
178	-180	0
-178	180	0
178	-181	0
-178	181	0
178	-219	0
-178	219	0
178	-222	0
-178	222	0
178	-228	0
-178	228	0
178	-231	0
-178	231	0
178	-234	0
-178	234	0
178	-248	0
-178	248	0
178	-250	0
-178	250	0
178	-253	0
-178	253	0
178	-292	0
-178	292	0
178	-295	0
-178	295	0
178	-298	0
-178	298	0
178	-306	0
-178	306	0
178	-309	0
-178	309	0
178	-317	0
-178	317	0
178	-369	0
-178	369	0
178	-372	0
-178	372	0
178	-374	0
-178	374	0
178	-376	0
-178	376	0
396	178	0
-396	-178	0
75	-161	0
-75	161	0
75	-162	0
-75	162	0
75	-165	0
-75	165	0
75	-167	0
-75	167	0
75	-169	0
-75	169	0
75	-173	0
-75	173	0
75	-175	0
-75	175	0
75	-184	0
-75	184	0
75	-186	0
-75	186	0
75	-189	0
-75	189	0
75	-191	0
-75	191	0
75	-225	0
-75	225	0
75	-240	0
-75	240	0
75	-242	0
-75	242	0
75	-245	0
-75	245	0
75	-303	0
-75	303	0
75	-313	0
-75	313	0
75	-378	0
-75	378	0
75	-380	0
-75	380	0
75	-382	0
-75	382	0
75	-396	0
-75	396	0
160	-170	0
-160	170	0
160	-171	0
-160	171	0
160	-176	0
-160	176	0
160	-179	0
-160	179	0
160	-187	0
-160	187	0
160	-192	0
-160	192	0
160	-223	0
-160	223	0
160	-224	0
-160	224	0
160	-235	0
-160	235	0
160	-243	0
-160	243	0
160	-249	0
-160	249	0
160	-296	0
-160	296	0
160	-299	0
-160	299	0
160	-304	0
-160	304	0
160	-310	0
-160	310	0
160	-314	0
-160	314	0
160	-318	0
-160	318	0
160	-370	0
-160	370	0
160	-377	0
-160	377	0
160	-381	0
-160	381	0
290	160	0
-290	-160	0
161	158	0
101	158	0
163	158	0
60	-389	0
-60	389	0
60	-390	0
-60	390	0
60	-391	0
-60	391	0
60	-394	0
-60	394	0
60	-399	0
-60	399	0
60	-448	0
-60	448	0
60	-453	0
-60	453	0
60	-456	0
-60	456	0
60	-460	0
-60	460	0
60	-463	0
-60	463	0
385	-387	0
-385	387	0
385	-388	0
-385	388	0
385	-393	0
-385	393	0
385	-398	0
-385	398	0
385	-447	0
-385	447	0
385	-452	0
-385	452	0
385	-455	0
-385	455	0
385	-459	0
-385	459	0
385	-462	0
-385	462	0
391	385	0
-391	-385	0
527	513	0
-577	-527	0
-446	-679	0
592	-679	0
446	-680	0
-592	-680	0
-680	577	0
-679	577	0
91	-591	0
-91	591	0
91	-592	0
-91	592	0
91	-595	0
-91	595	0
265	-326	0
-265	326	0
265	-327	0
-265	327	0
265	-449	0
-265	449	0
265	-470	0
-265	470	0
265	-472	0
-265	472	0
368	265	0
166	265	0
371	265	0
372	371	0
2	371	0
373	371	0
369	368	0
32	368	0
370	368	0
340	-579	0
-340	579	0
340	-580	0
-340	580	0
118	-263	0
-118	263	0
118	-264	0
-118	264	0
118	-339	0
-118	339	0
118	-342	0
-118	342	0
119	118	0
120	118	0
121	118	0
125	121	0
57	121	0
127	121	0
129	119	0
5	119	0
137	119	0
574	573	0
-574	-573	0
111	-255	0
-111	255	0
111	-256	0
-111	256	0
111	-574	0
-111	574	0
111	-578	0
-111	578	0
111	-588	0
-111	588	0
579	575	0
-579	-575	0
531	526	0
-531	-526	0
392	-530	0
-392	530	0
392	-531	0
-392	531	0
311	-324	0
-311	324	0
311	-325	0
-311	325	0
311	-395	0
-311	395	0
311	-473	0
-311	473	0
311	-500	0
-311	500	0
311	-519	0
-311	519	0
311	-545	0
-311	545	0
308	311	0
239	311	0
305	311	0
306	305	0
55	305	0
307	305	0
309	308	0
25	308	0
310	308	0
56	-522	0
-56	522	0
56	-523	0
-56	523	0
56	-529	0
-56	529	0
400	-401	0
-400	401	0
400	-402	0
-400	402	0
400	-528	0
-400	528	0
523	400	0
-523	-400	0
557	512	0
558	512	0
515	512	0
553	512	0
604	553	0
556	553	0
458	-555	0
-458	555	0
458	-556	0
-458	556	0
236	-540	0
-236	540	0
236	-541	0
-236	541	0
236	-565	0
-236	565	0
236	-590	0
-236	590	0
236	-649	0
-236	649	0
236	-650	0
-236	650	0
236	-653	0
-236	653	0
233	236	0
183	236	0
227	236	0
228	227	0
22	227	0
229	227	0
234	233	0
103	233	0
235	233	0
554	-604	0
-554	604	0
554	-605	0
-554	605	0
554	-607	0
-554	607	0
598	554	0
-598	-554	0
1	-597	0
-1	597	0
1	-598	0
-1	598	0
1	-637	0
-1	637	0
52	-568	0
-52	568	0
52	-569	0
-52	569	0
52	-571	0
-52	571	0
52	-599	0
-52	599	0
315	-532	0
-315	532	0
315	-533	0
-315	533	0
315	-536	0
-315	536	0
315	-564	0
-315	564	0
315	-645	0
-315	645	0
315	-646	0
-315	646	0
315	-648	0
-315	648	0
315	-651	0
-315	651	0
315	-652	0
-315	652	0
315	-654	0
-315	654	0
315	-655	0
-315	655	0
247	315	0
244	315	0
312	315	0
313	312	0
41	312	0
314	312	0
245	244	0
26	244	0
246	244	0
-559	-558	0
-516	-558	0
-549	-558	0
-454	-681	0
551	-681	0
454	-682	0
-551	-682	0
-682	549	0
-681	549	0
92	-550	0
-92	550	0
92	-551	0
-92	551	0
92	-576	0
-92	576	0
237	-320	0
-237	320	0
237	-321	0
-237	321	0
237	-457	0
-237	457	0
237	-517	0
-237	517	0
237	-538	0
-237	538	0
237	-560	0
-237	560	0
237	-581	0
-237	581	0
237	-587	0
-237	587	0
238	237	0
172	237	0
230	237	0
231	230	0
63	230	0
232	230	0
298	238	0
45	238	0
299	238	0
-397	-687	0
524	-687	0
397	-688	0
-524	-688	0
-688	516	0
-687	516	0
80	-524	0
-80	524	0
80	-525	0
-80	525	0
80	-572	0
-80	572	0
80	-610	0
-80	610	0
319	-466	0
-319	466	0
319	-467	0
-319	467	0
319	-468	0
-319	468	0
319	-518	0
-319	518	0
319	-543	0
-319	543	0
319	-593	0
-319	593	0
319	-596	0
-319	596	0
316	319	0
188	319	0
252	319	0
253	252	0
19	252	0
254	252	0
317	316	0
83	316	0
318	316	0
-451	-677	0
601	-677	0
451	-678	0
-601	-678	0
-678	559	0
-677	559	0
99	-600	0
-99	600	0
99	-601	0
-99	601	0
99	-612	0
-99	612	0
99	-613	0
-99	613	0
297	-561	0
-297	561	0
297	-562	0
-297	562	0
297	-563	0
-297	563	0
297	-585	0
-297	585	0
297	-644	0
-297	644	0
297	-647	0
-297	647	0
297	-670	0
-297	670	0
294	297	0
159	297	0
291	297	0
292	291	0
104	291	0
293	291	0
295	294	0
46	294	0
296	294	0
552	557	0
597	557	0
555	552	0
-555	-552	0
-384	-689	0
511	-689	0
384	-690	0
-511	-690	0
-690	510	0
-689	510	0
69	-322	0
-69	322	0
69	-323	0
-69	323	0
69	-511	0
-69	511	0
69	-594	0
-69	594	0
300	-403	0
-300	403	0
300	-404	0
-300	404	0
300	-408	0
-300	408	0
300	-469	0
-300	469	0
300	-471	0
-300	471	0
177	300	0
301	300	0
302	300	0
303	302	0
76	302	0
304	302	0
382	301	0
78	301	0
383	301	0
-508	-506	0
-534	-506	0
502	-534	0
-502	534	0
502	-535	0
-502	535	0
502	-539	0
-502	539	0
502	-582	0
-502	582	0
502	-584	0
-502	584	0
504	502	0
-504	-502	0
106	-504	0
-106	504	0
106	-505	0
-106	505	0
106	-537	0
-106	537	0
106	-542	0
-106	542	0
106	-583	0
-106	583	0
106	-586	0
-106	586	0
450	-507	0
-450	507	0
450	-508	0
-450	508	0
38	450	0
-38	-450	0
-507	-503	0
-505	-503	0
212	-405	0
-212	405	0
212	-406	0
-212	406	0
212	-407	0
-212	407	0
212	-431	0
-212	431	0
209	212	0
148	212	0
206	212	0
207	206	0
8	206	0
208	206	0
210	209	0
30	209	0
211	209	0
-114	-698	0
112	-698	0
114	-699	0
-112	-699	0
-699	697	0
-698	697	0
641	112	0
-641	-112	0
-642	113	0
643	114	0
-643	-114	0
-697	700	0
-694	700	0
693	-95	-34	0
695	117	-115	0
696	-117	115	0
-694	696	695	0
-116	115	117	0
-116	-115	-117	0
-635	634	636	0
-635	-634	-636	0
-491	639	642	0
-642	641	643	0
-642	-641	-643	0
-639	638	640	0
-639	-638	-640	0
-491	490	492	0
-491	-490	-492	0
691	436	-499	0
692	-436	499	0
-497	692	691	0
-437	-33	-436	0
-440	-438	-436	0
438	33	436	0
440	33	436	0
438	437	436	0
440	437	436	0
-495	494	496	0
-495	-494	-496	0
475	478	479	0
-476	475	477	0
-476	-475	-477	0
477	478	481	0
622	628	479	0
615	625	479	0
-626	-627	-615	0
-626	-625	-617	0
-626	-615	-617	0
-623	-624	-628	0
-623	-622	-630	0
-623	-628	-630	0
-480	479	481	0
-480	-479	-481	0
622	630	481	0
617	625	481	0
-667	-666	-618	0
-669	-664	-618	0
685	441	-656	0
686	-441	656	0
-544	686	685	0
-442	-102	-441	0
-445	-443	-441	0
443	102	441	0
445	102	441	0
443	442	441	0
445	442	441	0
156	154	153	0
93	154	153	0
157	154	153	0
156	67	153	0
93	67	153	0
157	67	153	0
156	155	153	0
93	155	153	0
157	155	153	0
-419	-29	-418	0
-421	-420	-418	0
420	29	418	0
421	29	418	0
420	419	418	0
421	419	418	0
282	280	279	0
82	280	279	0
283	280	279	0
282	74	279	0
82	74	279	0
283	74	279	0
282	281	279	0
82	281	279	0
283	281	279	0
-616	615	617	0
-616	-615	-617	0
-345	629	632	0
-632	631	633	0
-632	-631	-633	0
-629	628	630	0
-629	-628	-630	0
-348	-34	-344	0
-353	-351	-344	0
351	34	344	0
353	34	344	0
351	348	344	0
353	348	344	0
-354	-348	-34	0
-352	-348	-34	0
-349	-353	-351	0
-35	-353	-351	0
-345	344	346	0
-345	-344	-346	0
-348	-36	-346	0
-353	-351	-346	0
351	36	346	0
353	36	346	0
351	348	346	0
353	348	346	0
198	196	195	0
54	196	195	0
199	196	195	0
198	86	195	0
54	86	195	0
199	86	195	0
198	197	195	0
54	197	195	0
199	197	195	0
602	486	478	0
482	658	478	0
488	432	484	0
-488	-432	484	0
-488	432	-484	0
488	-432	-484	0
-433	-85	-432	0
-435	-434	-432	0
434	85	432	0
435	85	432	0
434	433	432	0
435	433	432	0
146	144	143	0
14	144	143	0
147	144	143	0
146	16	143	0
14	16	143	0
147	16	143	0
146	145	143	0
14	145	143	0
147	145	143	0
-413	-42	-412	0
-416	-414	-412	0
414	42	412	0
416	42	412	0
414	413	412	0
416	413	412	0
136	135	133	0
13	135	133	0
138	135	133	0
136	100	133	0
13	100	133	0
138	100	133	0
136	134	133	0
13	134	133	0
138	134	133	0
506	503	493	0
-509	-503	-493	0
-509	-506	-493	0
683	386	-548	0
684	-386	548	0
-514	684	683	0
-388	-17	-386	0
-410	-390	-386	0
390	17	386	0
410	17	386	0
390	388	386	0
410	388	386	0
-225	-224	-221	0
224	222	221	0
225	222	221	0
224	40	221	0
225	40	221	0
224	223	221	0
225	223	221	0
528	530	513	0
526	529	513	0
-578	-575	-527	0
-580	-573	-527	0
679	446	-592	0
680	-446	592	0
-577	680	679	0
-447	-87	-446	0
-449	-448	-446	0
448	87	446	0
449	87	446	0
448	447	446	0
449	447	446	0
169	167	166	0
94	167	166	0
171	167	166	0
169	21	166	0
94	21	166	0
171	21	166	0
169	168	166	0
94	168	166	0
171	168	166	0
-347	-95	-340	0
-342	-350	-340	0
350	95	340	0
342	95	340	0
350	347	340	0
342	347	340	0
141	139	120	0
61	139	120	0
142	139	120	0
141	7	120	0
61	7	120	0
142	7	120	0
141	140	120	0
61	140	120	0
142	140	120	0
-393	-108	-392	0
-395	-394	-392	0
394	108	392	0
395	108	392	0
394	393	392	0
395	393	392	0
242	240	239	0
47	240	239	0
243	240	239	0
242	15	239	0
47	15	239	0
243	15	239	0
242	241	239	0
47	241	239	0
243	241	239	0
-553	-604	-556	0
-459	-59	-458	0
-540	-460	-458	0
460	59	458	0
540	59	458	0
460	459	458	0
540	459	458	0
186	184	183	0
58	184	183	0
187	184	183	0
186	10	183	0
58	10	183	0
187	10	183	0
186	185	183	0
58	185	183	0
187	185	183	0
568	461	515	0
-568	-461	515	0
-568	461	-515	0
568	-461	-515	0
-462	-24	-461	0
-532	-463	-461	0
463	24	461	0
532	24	461	0
463	462	461	0
532	462	461	0
250	248	247	0
20	248	247	0
251	248	247	0
250	64	247	0
20	64	247	0
251	64	247	0
250	249	247	0
20	249	247	0
251	249	247	0
681	454	-551	0
682	-454	551	0
-549	682	681	0
-455	-31	-454	0
-457	-456	-454	0
456	31	454	0
457	31	454	0
456	455	454	0
457	455	454	0
175	173	172	0
53	173	172	0
176	173	172	0
175	12	172	0
53	12	172	0
176	12	172	0
175	174	172	0
53	174	172	0
176	174	172	0
687	397	-524	0
688	-397	524	0
-516	688	687	0
-398	-4	-397	0
-466	-399	-397	0
399	4	397	0
466	4	397	0
399	398	397	0
466	398	397	0
191	189	188	0
70	189	188	0
192	189	188	0
191	98	188	0
70	98	188	0
192	98	188	0
191	190	188	0
70	190	188	0
192	190	188	0
677	451	-601	0
678	-451	601	0
-559	678	677	0
-452	-9	-451	0
-561	-453	-451	0
453	9	451	0
561	9	451	0
453	452	451	0
561	452	451	0
165	162	159	0
6	162	159	0
170	162	159	0
165	27	159	0
6	27	159	0
170	27	159	0
165	164	159	0
6	164	159	0
170	164	159	0
-557	-552	-597	0
689	384	-511	0
690	-384	511	0
-510	690	689	0
-387	-43	-384	0
-403	-389	-384	0
389	43	384	0
403	43	384	0
389	387	384	0
403	387	384	0
181	180	177	0
72	180	177	0
182	180	177	0
181	84	177	0
72	84	177	0
182	84	177	0
181	179	177	0
72	179	177	0
182	179	177	0
506	508	534	0
503	507	505	0
-429	-71	-428	0
-431	-430	-428	0
430	71	428	0
431	71	428	0
430	429	428	0
431	429	428	0
151	149	148	0
88	149	148	0
152	149	148	0
151	97	148	0
88	97	148	0
152	97	148	0
151	150	148	0
88	150	148	0
152	150	148	0
698	114	-112	0
699	-114	112	0
-697	699	698	0
-113	112	114	0
-113	-112	-114	0
-700	697	694	0
-274	-277	-110	-278	0
-269	-270	-28	-271	0
-266	-267	-79	-268	0
-273	-275	-109	-276	0
-618	-625	-628	-479	0
-618	-615	-628	-479	0
-618	-625	-622	-479	0
-618	-615	-622	-479	0
-619	625	-620	617	0
-619	625	-618	615	0
-619	625	615	617	0
-619	622	-620	630	0
-619	622	-618	628	0
-619	622	628	630	0
-616	622	-617	630	0
-616	622	-615	628	0
-616	622	628	630	0
-626	622	-627	630	0
-626	622	-625	628	0
-626	622	628	630	0
-623	625	-624	617	0
-623	625	-622	615	0
-623	625	615	617	0
-629	625	-630	617	0
-629	625	-628	615	0
-629	625	615	617	0
-618	-625	-630	-481	0
-618	-617	-630	-481	0
-618	-625	-622	-481	0
-618	-617	-622	-481	0
544	664	666	618	0
544	669	666	618	0
544	664	667	618	0
544	669	667	618	0
-415	-425	-153	-422	0
-422	-423	-62	-424	0
-155	-67	-154	-153	0
-157	-93	-156	-153	0
-425	-426	-39	-427	0
-343	-279	-360	-357	0
-357	-358	-105	-359	0
-360	-361	-11	-362	0
-281	-74	-280	-279	0
-283	-82	-282	-279	0
-193	-194	-195	-122	0
-122	-124	-18	-126	0
-197	-86	-196	-195	0
-199	-54	-198	-195	0
-194	-200	-37	-201	0
-484	-658	-486	-478	0
-484	-482	-486	-478	0
-484	-658	-602	-478	0
-484	-482	-602	-478	0
-216	-143	-217	-213	0
-213	-214	-107	-215	0
-217	-288	-81	-289	0
-145	-16	-144	-143	0
-147	-14	-146	-143	0
-205	-202	-133	-130	0
-130	-131	-66	-132	0
-134	-100	-135	-133	0
-138	-13	-136	-133	0
-202	-203	-73	-204	0
-226	-158	-221	-218	0
-218	-219	-89	-220	0
-223	-40	-222	-221	0
-158	-161	-101	-163	0
-527	-529	-530	-513	0
-527	-526	-530	-513	0
-527	-529	-528	-513	0
-527	-526	-528	-513	0
577	573	575	527	0
577	580	575	527	0
577	573	578	527	0
577	580	578	527	0
-265	-368	-166	-371	0
-371	-372	-2	-373	0
-168	-21	-167	-166	0
-171	-94	-169	-166	0
-368	-369	-32	-370	0
-118	-119	-120	-121	0
-121	-125	-57	-127	0
-140	-7	-139	-120	0
-142	-61	-141	-120	0
-119	-129	-5	-137	0
-311	-308	-239	-305	0
-305	-306	-55	-307	0
-241	-15	-240	-239	0
-243	-47	-242	-239	0
-308	-309	-25	-310	0
-236	-233	-183	-227	0
-227	-228	-22	-229	0
-185	-10	-184	-183	0
-187	-58	-186	-183	0
-233	-234	-103	-235	0
-315	-247	-244	-312	0
-312	-313	-41	-314	0
-244	-245	-26	-246	0
-249	-64	-248	-247	0
-251	-20	-250	-247	0
558	559	516	549	0
-237	-238	-172	-230	0
-230	-231	-63	-232	0
-174	-12	-173	-172	0
-176	-53	-175	-172	0
-238	-298	-45	-299	0
-319	-316	-188	-252	0
-252	-253	-19	-254	0
-190	-98	-189	-188	0
-192	-70	-191	-188	0
-316	-317	-83	-318	0
-297	-294	-159	-291	0
-291	-292	-104	-293	0
-164	-27	-162	-159	0
-170	-6	-165	-159	0
-294	-295	-46	-296	0
-300	-177	-301	-302	0
-302	-303	-76	-304	0
-301	-382	-78	-383	0
-179	-84	-180	-177	0
-182	-72	-181	-177	0
-212	-209	-148	-206	0
-206	-207	-8	-208	0
-150	-97	-149	-148	0
-152	-88	-151	-148	0
-209	-210	-30	-211	0
490	428	493	494	497	0
492	428	493	496	497	0
-272	-273	-266	-269	-274	0
509	510	512	513	514	0
-512	-557	-558	-515	-553	0
